c generated by sgen
c see http://www.cs.qub.ac.uk/~i.spence/sgen
p cnf 89 188
-2 -3 -4 0
-1 -3 -4 0
-1 -2 -4 0
-1 -2 -3 0
-6 -7 -8 0
-5 -7 -8 0
-5 -6 -8 0
-5 -6 -7 0
-10 -11 -12 0
-9 -11 -12 0
-9 -10 -12 0
-9 -10 -11 0
-14 -15 -16 0
-13 -15 -16 0
-13 -14 -16 0
-13 -14 -15 0
-18 -19 -20 0
-17 -19 -20 0
-17 -18 -20 0
-17 -18 -19 0
-22 -23 -24 0
-21 -23 -24 0
-21 -22 -24 0
-21 -22 -23 0
-26 -27 -28 0
-25 -27 -28 0
-25 -26 -28 0
-25 -26 -27 0
-30 -31 -32 0
-29 -31 -32 0
-29 -30 -32 0
-29 -30 -31 0
-34 -35 -36 0
-33 -35 -36 0
-33 -34 -36 0
-33 -34 -35 0
-38 -39 -40 0
-37 -39 -40 0
-37 -38 -40 0
-37 -38 -39 0
-42 -43 -44 0
-41 -43 -44 0
-41 -42 -44 0
-41 -42 -43 0
-46 -47 -48 0
-45 -47 -48 0
-45 -46 -48 0
-45 -46 -47 0
-50 -51 -52 0
-49 -51 -52 0
-49 -50 -52 0
-49 -50 -51 0
-54 -55 -56 0
-53 -55 -56 0
-53 -54 -56 0
-53 -54 -55 0
-58 -59 -60 0
-57 -59 -60 0
-57 -58 -60 0
-57 -58 -59 0
-62 -63 -64 0
-61 -63 -64 0
-61 -62 -64 0
-61 -62 -63 0
-66 -67 -68 0
-65 -67 -68 0
-65 -66 -68 0
-65 -66 -67 0
-70 -71 -72 0
-69 -71 -72 0
-69 -70 -72 0
-69 -70 -71 0
-74 -75 -76 0
-73 -75 -76 0
-73 -74 -76 0
-73 -74 -75 0
-78 -79 -80 0
-77 -79 -80 0
-77 -78 -80 0
-77 -78 -79 0
-82 -83 -84 0
-81 -83 -84 0
-81 -82 -84 0
-81 -82 -83 0
-85 -86 -87 0
-85 -86 -88 0
-85 -86 -89 0
-85 -87 -88 0
-85 -87 -89 0
-85 -88 -89 0
-86 -87 -88 0
-86 -87 -89 0
-86 -88 -89 0
-87 -88 -89 0
61 11 3 0
39 11 3 0
39 61 3 0
39 61 11 0
15 35 76 0
77 35 76 0
77 15 76 0
77 15 35 0
70 9 30 0
86 9 30 0
86 70 30 0
86 70 9 0
21 16 27 0
41 16 27 0
41 21 27 0
41 21 16 0
7 2 34 0
89 2 34 0
89 7 34 0
89 7 2 0
57 10 47 0
44 10 47 0
44 57 47 0
44 57 10 0
60 71 79 0
8 71 79 0
8 60 79 0
8 60 71 0
50 56 87 0
80 56 87 0
80 50 87 0
80 50 56 0
43 72 37 0
67 72 37 0
67 43 37 0
67 43 72 0
48 78 12 0
66 78 12 0
66 48 12 0
66 48 78 0
85 63 22 0
45 63 22 0
45 85 22 0
45 85 63 0
46 83 40 0
52 83 40 0
52 46 40 0
52 46 83 0
84 69 13 0
64 69 13 0
64 84 13 0
64 84 69 0
88 5 20 0
75 5 20 0
75 88 20 0
75 88 5 0
62 51 36 0
18 51 36 0
18 62 36 0
18 62 51 0
59 32 25 0
33 32 25 0
33 59 25 0
33 59 32 0
17 38 23 0
53 38 23 0
53 17 23 0
53 17 38 0
14 31 1 0
55 31 1 0
55 14 1 0
55 14 31 0
82 74 28 0
4 74 28 0
4 82 28 0
4 82 74 0
26 65 54 0
6 65 54 0
6 26 54 0
6 26 65 0
81 42 19 0
29 42 19 0
29 81 19 0
29 81 42 0
68 73 49 0
68 73 58 0
68 73 24 0
68 49 58 0
68 49 24 0
68 58 24 0
73 49 58 0
73 49 24 0
73 58 24 0
49 58 24 0
